p cnf 19 27
1 2 3 4 5 6 7 8 9 10 0
-1 11 0
-11 12 0
-2 -11 0
-2 12 0
-12 13 0
-3 -12 0
-3 13 0
-13 14 0
-4 -13 0
-4 14 0
-14 15 0
-5 -14 0
-5 15 0
-15 16 0
-6 -15 0
-6 16 0
-16 17 0
-7 -16 0
-7 17 0
-17 18 0
-8 -17 0
-8 18 0
-18 19 0
-9 -18 0
-9 19 0
-10 -19 0
